solving instance uflp nlass gunluk ../../../../../instances/uflp/gunluk/gunluk-20-40-7.txt exp
Set parameter TokenServer to value "licences.gerad.lan"
Set parameter MIPGap to value 1e-06
Set parameter FuncPieceError to value 1e-06
Set parameter Threads to value 1
Set parameter FuncPieces to value -2
Set parameter TimeLimit to value 3600
Gurobi Optimizer version 12.0.2 build v12.0.2rc0 (linux64 - "AlmaLinux 9.6 (Sage Margay)")

CPU model: Intel(R) Xeon(R) Gold 6258R CPU @ 2.70GHz, instruction set [SSE2|AVX|AVX2|AVX512]
Thread count: 56 physical cores, 56 logical processors, using up to 1 threads

Non-default parameters:
TimeLimit  3600
MIPGap  1e-06
Threads  1
FuncPieces  -2
FuncPieceError  1e-06

Optimize a model with 4040 rows, 5620 columns and 9600 nonzeros
Model fingerprint: 0x73dddd77
Model has 1600 function constraints treated as nonlinear
  800 EXP, 800 POW
Variable types: 4800 continuous, 820 integer (820 binary)
Coefficient statistics:
  Matrix range     [5e-01, 9e+01]
  Objective range  [1e+00, 8e+01]
  Bounds range     [1e+00, 1e+10]
  RHS range        [4e-01, 4e+01]
Warning: Model contains large bounds
         Consider reformulating model or setting NumericFocus parameter
         to avoid numerical issues.
Warning: 0 <= x < 1e-10 in domain of pow(x,a) with a=-1.000.
         Setting lower bound to 1e-10.
Presolve removed 1600 rows and 1600 columns
Presolve time: 0.02s
Presolved: 9640 rows, 4021 columns, 20000 nonzeros
Presolved model has 800 bilinear constraint(s)
Presolved model has 800 nonlinear constraint(s)

Solving non-convex MINLP

Variable types: 3201 continuous, 820 integer (820 binary)
Found heuristic solution: objective 2902.1917577

Root relaxation: objective 7.414628e+02, 4703 iterations, 0.04 seconds (0.04 work units)

    Nodes    |    Current Node    |     Objective Bounds      |     Work
 Expl Unexpl |  Obj  Depth IntInf | Incumbent    BestBd   Gap | It/Node Time

     0     0  741.46276    0  217 2902.19176  741.46276  74.5%     -    0s
H    0     0                     884.3340617  741.46276  16.2%     -    0s
     0     0  830.21394    0  158  884.33406  830.21394  6.12%     -    0s
     0     0  830.21394    0  158  884.33406  830.21394  6.12%     -    0s
     0     0  830.80353    0  159  884.33406  830.80353  6.05%     -    0s
     0     0  857.03843    0  156  884.33406  857.03843  3.09%     -    0s
     0     0  858.22220    0  156  884.33406  858.22220  2.95%     -    0s
     0     0  874.34269    0  114  884.33406  874.34269  1.13%     -    0s
     0     0  874.34269    0  208  884.33406  874.34269  1.13%     -    0s
     0     0  874.34269    0  132  884.33406  874.34269  1.13%     -    0s
     0     0  874.34269    0  105  884.33406  874.34269  1.13%     -    0s
     0     0  874.34269    0  105  884.33406  874.34269  1.13%     -    0s
     0     0  880.88752    0  155  884.33406  880.88752  0.39%     -    0s
     0     0  880.88752    0  174  884.33406  880.88752  0.39%     -    0s
     0     0  880.88752    0  190  884.33406  880.88752  0.39%     -    0s
     0     0  880.88752    0  156  884.33406  880.88752  0.39%     -    0s
     0     0  882.11168    0   51  884.33406  882.11168  0.25%     -    0s
     0     0  882.11168    0  168  884.33406  882.11168  0.25%     -    0s
     0     0  882.11168    0  166  884.33406  882.11168  0.25%     -    0s
     0     0  882.11168    0   68  884.33406  882.11168  0.25%     -    0s
     0     0  883.57070    0   84  884.33406  883.57070  0.09%     -    0s
     0     0  883.57070    0   84  884.33406  883.57070  0.09%     -    0s
     0     0  883.83730    0   49  884.33406  883.83730  0.06%     -    0s
     0     0     cutoff    0       884.33406  884.33406  0.00%     -    0s

Cutting planes:
  Gomory: 14
  Flow cover: 92
  RLT: 46
  Relax-and-lift: 65

Explored 1 nodes (10601 simplex iterations) in 0.69 seconds (0.38 work units)
Thread count was 1 (of 56 available processors)

Solution count 2: 884.334 2902.19 

Optimal solution found (tolerance 1.00e-06)
Best objective 8.843340616663e+02, best bound 8.843340616663e+02, gap 0.0000%

User-callback calls 711, time in user-callback 0.00 sec
Generating Gunluk and Lee data file ../../../../../instances/uflp/gunluk/gunluk-20-40-7.txt
primal_bound = 884.3340616662999, dual_bound = 884.3340616662877, gap = 1.3884095395804912e-12, time = 0.7
